//Number of items      		
144
//Bin Capacity      
1000
//Known Best Solution  		
59
//Weight of Item
     789         1
     787         1
     786         1
     781         1
     777         1
     774         1
     773         1
     770         1
     763         2
     757         1
     753         1
     748         1
     727         1
     726         1
     716         1
     707         1
     703         1
     700         1
     695         1
     681         1
     676         2
     675         2
     664         1
     661         1
     654         2
     649         1
     645         1
     639         1
     626         1
     620         1
     613         1
     612         1
     605         2
     601         1
     589         1
     586         1
     577         1
     562         1
     561         1
     548         1
     536         1
     523         1
     511         1
     500         1
     498         2
     493         1
     488         1
     484         2
     483         1
     482         1
     478         1
     464         1
     461         2
     458         1
     438         1
     436         1
     434         1
     431         1
     420         1
     419         1
     416         1
     415         1
     414         1
     413         1
     410         1
     400         1
     393         1
     385         1
     373         2
     372         1
     369         1
     351         2
     342         1
     321         1
     320         2
     317         1
     313         1
     307         1
     301         1
     300         1
     299         1
     288         1
     275         1
     270         1
     267         1
     260         1
     257         1
     256         1
     253         2
     248         1
     237         1
     234         1
     227         1
     216         1
     214         1
     208         1
     202         1
     192         1
     191         1
     188         1
     173         1
     169         1
     164         1
     160         1
     155         1
     151         1
     145         1
     140         1
     131         1
     130         1
     127         1
     124         1
     117         1
     116         1
     108         2
     107         1
     106         1
      97         1
      94         1
      92         1
      86         1
      80         1
      77         1
      76         1
      75         1
      73         2
      70         1
      67         1
      62         1
      59         1
      54         1
      53         1
      50         2
      49         1
      48         1
      46         1
      41         1
      40         2
      32         1
      29         1
      28         1
      27         1
      24         1
      19         1